c Sudoku solution
p cnf 729 0
112 0
128 0
171 0
213 0
241 0
256 0
262 0
344 0
425 0
467 0
593 0
679 0
688 0
716 0
757 0
147 0
768 0
358 0
783 0
373 0
791 0
817 0
833 0
623 0
894 0
878 0
298 0
918 0
315 0
369 0
922 0
946 0
886 0
772 0
443 0
548 0
438 0
963 0
954 0
931 0
829 0
735 0
724 0
749 0
227 0
336 0
321 0
196 0
526 0
666 0
153 0
165 0
564 0
861 0
476 0
484 0
581 0
492 0
519 0
411 0
614 0
459 0
651 0
274 0
189 0
285 0
134 0
239 0
382 0
397 0
987 0
975 0
999 0
577 0
695 0
555 0
642 0
532 0
637 0
845 0
852 0
